NAME          
ROWS
 N  OBJ
 L  c1
 L  c2
 L  c3
COLUMNS
    MARKER    'MARKER'                 'INTORG'
    x[1]      c1        209
    x[1]      c2        475
    x[1]      c3        827
    x[1]      OBJ       -998
    x[2]      c1        391
    x[2]      c2        737
    x[2]      c3        857
    x[2]      OBJ       -867
    x[3]      c1        245
    x[3]      c2        213
    x[3]      c3        690
    x[3]      OBJ       -465
    x[4]      c1        609
    x[4]      c2        565
    x[4]      c3        767
    x[4]      OBJ       -316
    x[5]      c1        33
    x[5]      c2        246
    x[5]      c3        702
    x[5]      OBJ       -639
    x[6]      c1        491
    x[6]      c2        701
    x[6]      c3        454
    x[6]      OBJ       -676
    x[7]      c1        507
    x[7]      c2        135
    x[7]      c3        665
    x[7]      OBJ       -23
    x[8]      c1        393
    x[8]      c2        467
    x[8]      c3        301
    x[8]      OBJ       -660
    x[9]      c1        731
    x[9]      c2        779
    x[9]      c3        533
    x[9]      OBJ       -649
    x[10]     c1        689
    x[10]     c2        370
    x[10]     c3        195
    x[10]     OBJ       -655
    x[11]     c1        482
    x[11]     c2        97
    x[11]     c3        657
    x[11]     OBJ       -904
    x[12]     c1        239
    x[12]     c2        749
    x[12]     c3        163
    x[12]     OBJ       -873
    x[13]     c1        934
    x[13]     c2        806
    x[13]     c3        702
    x[13]     OBJ       -227
    x[14]     c1        654
    x[14]     c2        365
    x[14]     c3        769
    x[14]     OBJ       -500
    x[15]     c1        399
    x[15]     c2        361
    x[15]     c3        977
    x[15]     OBJ       -971
    x[16]     c1        908
    x[16]     c2        89
    x[16]     c3        20
    x[16]     OBJ       -694
    x[17]     c1        145
    x[17]     c2        251
    x[17]     c3        837
    x[17]     OBJ       -179
    x[18]     c1        62
    x[18]     c2        271
    x[18]     c3        17
    x[18]     OBJ       -859
    x[19]     c1        429
    x[19]     c2        741
    x[19]     c3        43
    x[19]     OBJ       -333
    x[20]     c1        171
    x[20]     c2        611
    x[20]     c3        491
    x[20]     OBJ       -232
    x[21]     c1        782
    x[21]     c2        992
    x[21]     c3        406
    x[21]     OBJ       -866
    x[22]     c1        496
    x[22]     c2        227
    x[22]     c3        43
    x[22]     OBJ       -950
    x[23]     c1        273
    x[23]     c2        389
    x[23]     c3        34
    x[23]     OBJ       -440
    x[24]     c1        64
    x[24]     c2        988
    x[24]     c3        509
    x[24]     OBJ       -89
    x[25]     c1        416
    x[25]     c2        669
    x[25]     c3        710
    x[25]     OBJ       -626
    x[26]     c1        869
    x[26]     c2        404
    x[26]     c3        139
    x[26]     OBJ       -832
    x[27]     c1        976
    x[27]     c2        144
    x[27]     c3        559
    x[27]     OBJ       -265
    x[28]     c1        665
    x[28]     c2        279
    x[28]     c3        569
    x[28]     OBJ       -496
    x[29]     c1        849
    x[29]     c2        3
    x[29]     c3        11
    x[29]     OBJ       -874
    x[30]     c1        132
    x[30]     c2        119
    x[30]     c3        648
    x[30]     OBJ       -496
    x[31]     c1        898
    x[31]     c2        755
    x[31]     c3        284
    x[31]     OBJ       -921
    x[32]     c1        626
    x[32]     c2        568
    x[32]     c3        190
    x[32]     OBJ       -336
    x[33]     c1        462
    x[33]     c2        970
    x[33]     c3        32
    x[33]     OBJ       -636
    x[34]     c1        850
    x[34]     c2        794
    x[34]     c3        668
    x[34]     OBJ       -16
    x[35]     c1        930
    x[35]     c2        740
    x[35]     c3        107
    x[35]     OBJ       -676
    x[36]     c1        659
    x[36]     c2        246
    x[36]     c3        556
    x[36]     OBJ       -449
    x[37]     c1        642
    x[37]     c2        4
    x[37]     c3        671
    x[37]     OBJ       -96
    x[38]     c1        260
    x[38]     c2        956
    x[38]     c3        146
    x[38]     OBJ       -102
    x[39]     c1        669
    x[39]     c2        354
    x[39]     c3        546
    x[39]     OBJ       -916
    x[40]     c1        502
    x[40]     c2        496
    x[40]     c3        921
    x[40]     OBJ       -236
RHS
    rhs       c1        10370
    rhs       c2        9563
    rhs       c3        9208
RANGES
BOUNDS
 BV bounds    x[1]
 BV bounds    x[2]
 BV bounds    x[3]
 BV bounds    x[4]
 BV bounds    x[5]
 BV bounds    x[6]
 BV bounds    x[7]
 BV bounds    x[8]
 BV bounds    x[9]
 BV bounds    x[10]
 BV bounds    x[11]
 BV bounds    x[12]
 BV bounds    x[13]
 BV bounds    x[14]
 BV bounds    x[15]
 BV bounds    x[16]
 BV bounds    x[17]
 BV bounds    x[18]
 BV bounds    x[19]
 BV bounds    x[20]
 BV bounds    x[21]
 BV bounds    x[22]
 BV bounds    x[23]
 BV bounds    x[24]
 BV bounds    x[25]
 BV bounds    x[26]
 BV bounds    x[27]
 BV bounds    x[28]
 BV bounds    x[29]
 BV bounds    x[30]
 BV bounds    x[31]
 BV bounds    x[32]
 BV bounds    x[33]
 BV bounds    x[34]
 BV bounds    x[35]
 BV bounds    x[36]
 BV bounds    x[37]
 BV bounds    x[38]
 BV bounds    x[39]
 BV bounds    x[40]
ENDATA
